
  32    1
  10

   0   0  10 2 3 4 5 7 8 12 16 19 31 
   8   5   6 18 15 11 10 9 6 
   9   5   7 30 29 26 24 18 17 11 
   3   9   5 30 24 18 17 13 
   7  10   8 28 27 26 25 24 22 21 17 
   9  10   6 26 24 22 21 17 14 
  10  10   4 26 21 17 14 
   2   7   6 27 24 23 22 21 20 
   2   6   5 29 26 25 21 17 
   9   8   5 27 24 22 21 17 
   2   9   5 28 25 23 21 20 
   1   3   4 28 24 22 17 
   7  10   4 27 23 22 21 
   5   9   3 25 23 20 
  10   5   3 26 22 20 
   6  10   2 22 20 
   9   5   1 20 
   7   8   1 21 
   8  10   1 29 
   6   5   1 32
   1  10   1 32
   4  10   1 32
   5   6   1 32
   1   8   1 32
   3  10   1 32
   7   8   1 32
   6  10   1 32
   8  10   1 32
   3   8   1 32
   7   7   1 32
   6   9   1 32
   0   0   0 
